Cases/Case 24/case24.dat

set Buses :=     1     2     3     4     5     6     7     8     9    10    11    12    13    14    15    16    17    18    19    20    21    22    23    24;
set Lines :=   1   2   3   4   5   6   7   8   9  10  11  12  13  14  15  16  17  18  19  20  21  22  23  24  25  26  27  28  29  30  31  32  33  34  35  36  37  38;
set Generators :=   1   2   3   4   5   6   7   8   9  10  11  12  13  14  15  16  17  18  19  20  21  22  23  24  25  26  27  28  29  30  31  32  33;


# Generator data:

param Cost1 :=    1    0.000000000000000,   2    0.000000000000000,   3  141.419999999999990,   4  141.419999999999990,   5    0.000000000000000,   6    0.000000000000000,   7  141.419999999999990,   8  141.419999999999990,   9  526.719999999999910,  10  526.719999999999910,  11  526.719999999999910,  12   71.700000000000003,  13   71.700000000000003,  14   71.700000000000003,  15    0.000000000000000,  16 3284.119999999999900,  17 3284.119999999999900,  18 3284.119999999999900,  19 3284.119999999999900,  20 3284.119999999999900,  21   83.420000000000002,  22   83.420000000000002,  23    2.130000000000000,  24    2.130000000000000,  25    0.000000000000000,  26    0.000000000000000,  27    0.000000000000000,  28    0.000000000000000,  29    0.000000000000000,  30    0.000000000000000,  31   83.420000000000002,  32   83.420000000000002,  33   48.950000000000003;
param Cost2 :=    1 13000.000000000000000,   2 13000.000000000000000,   3 1608.109999999999900,   4 1608.109999999999900,   5 13000.000000000000000,   6 13000.000000000000000,   7 1608.109999999999900,   8 1608.109999999999900,   9 4366.149999999999600,  10 4366.149999999999600,  11 4366.149999999999600,  12 4858.040000000000000,  13 4858.040000000000000,  14 4858.040000000000000,  15    0.000000000000000,  16 5656.399999999999600,  17 5656.399999999999600,  18 5656.399999999999600,  19 5656.399999999999600,  20 5656.399999999999600,  21 1238.829999999999900,  22 1238.829999999999900,  23  442.310000000000000,  24  442.310000000000000,  25    0.100000000000000,  26    0.100000000000000,  27    0.100000000000000,  28    0.100000000000000,  29    0.100000000000000,  30    0.100000000000000,  31 1238.829999999999900,  32 1238.829999999999900,  33 1184.950000000000000;
param Cost3 :=    1  400.684900000000030,   2  400.684900000000030,   3  212.307600000000010,   4  212.307600000000010,   5  400.684900000000030,   6  400.684900000000030,   7  212.307600000000010,   8  212.307600000000010,   9  781.520999999999960,  10  781.520999999999960,  11  781.520999999999960,  12  832.757500000000050,  13  832.757500000000050,  14  832.757500000000050,  15    0.000000000000000,  16   86.385199999999998,  17   86.385199999999998,  18   86.385199999999998,  19   86.385199999999998,  20   86.385199999999998,  21  382.239100000000010,  22  382.239100000000010,  23  395.374900000000030,  24  395.374900000000030,  25    0.001000000000000,  26    0.001000000000000,  27    0.001000000000000,  28    0.001000000000000,  29    0.001000000000000,  30    0.001000000000000,  31  382.239100000000010,  32  382.239100000000010,  33  665.109400000000050;
param RealPowerGenLimitLower :=    1    0.160000000000000,   2    0.160000000000000,   3    0.152000000000000,   4    0.152000000000000,   5    0.160000000000000,   6    0.160000000000000,   7    0.152000000000000,   8    0.152000000000000,   9    0.250000000000000,  10    0.250000000000000,  11    0.250000000000000,  12    0.690000000000000,  13    0.690000000000000,  14    0.690000000000000,  15    0.000000000000000,  16    0.024000000000000,  17    0.024000000000000,  18    0.024000000000000,  19    0.024000000000000,  20    0.024000000000000,  21    0.543000000000000,  22    0.543000000000000,  23    1.000000000000000,  24    1.000000000000000,  25    0.100000000000000,  26    0.100000000000000,  27    0.100000000000000,  28    0.100000000000000,  29    0.100000000000000,  30    0.100000000000000,  31    0.543000000000000,  32    0.543000000000000,  33    1.400000000000000;
param RealPowerGenLimitUpper :=    1    0.200000000000000,   2    0.200000000000000,   3    0.760000000000000,   4    0.760000000000000,   5    0.200000000000000,   6    0.200000000000000,   7    0.760000000000000,   8    0.760000000000000,   9    1.000000000000000,  10    1.000000000000000,  11    1.000000000000000,  12    1.970000000000000,  13    1.970000000000000,  14    1.970000000000000,  15    0.000000000000000,  16    0.120000000000000,  17    0.120000000000000,  18    0.120000000000000,  19    0.120000000000000,  20    0.120000000000000,  21    1.550000000000000,  22    1.550000000000000,  23    4.000000000000000,  24    4.000000000000000,  25    0.500000000000000,  26    0.500000000000000,  27    0.500000000000000,  28    0.500000000000000,  29    0.500000000000000,  30    0.500000000000000,  31    1.550000000000000,  32    1.550000000000000,  33    3.500000000000000;
param ReactivePowerGenLimitLower :=    1    0.000000000000000,   2    0.000000000000000,   3   -0.250000000000000,   4   -0.250000000000000,   5    0.000000000000000,   6    0.000000000000000,   7   -0.250000000000000,   8   -0.250000000000000,   9    0.000000000000000,  10    0.000000000000000,  11    0.000000000000000,  12    0.000000000000000,  13    0.000000000000000,  14    0.000000000000000,  15   -0.500000000000000,  16    0.000000000000000,  17    0.000000000000000,  18    0.000000000000000,  19    0.000000000000000,  20    0.000000000000000,  21   -0.500000000000000,  22   -0.500000000000000,  23   -0.500000000000000,  24   -0.500000000000000,  25   -0.100000000000000,  26   -0.100000000000000,  27   -0.100000000000000,  28   -0.100000000000000,  29   -0.100000000000000,  30   -0.100000000000000,  31   -0.500000000000000,  32   -0.500000000000000,  33   -0.250000000000000;
param ReactivePowerGenLimitUpper :=    1    0.100000000000000,   2    0.100000000000000,   3    0.300000000000000,   4    0.300000000000000,   5    0.100000000000000,   6    0.100000000000000,   7    0.300000000000000,   8    0.300000000000000,   9    0.600000000000000,  10    0.600000000000000,  11    0.600000000000000,  12    0.800000000000000,  13    0.800000000000000,  14    0.800000000000000,  15    2.000000000000000,  16    0.060000000000000,  17    0.060000000000000,  18    0.060000000000000,  19    0.060000000000000,  20    0.060000000000000,  21    0.800000000000000,  22    0.800000000000000,  23    2.000000000000000,  24    2.000000000000000,  25    0.160000000000000,  26    0.160000000000000,  27    0.160000000000000,  28    0.160000000000000,  29    0.160000000000000,  30    0.160000000000000,  31    0.800000000000000,  32    0.800000000000000,  33    1.500000000000000;
param GenLocation :=    1            1,   2            1,   3            1,   4            1,   5            2,   6            2,   7            2,   8            2,   9            7,  10            7,  11            7,  12           13,  13           13,  14           13,  15           14,  16           15,  17           15,  18           15,  19           15,  20           15,  21           15,  22           16,  23           18,  24           21,  25           22,  26           22,  27           22,  28           22,  29           22,  30           22,  31           23,  32           23,  33           23;


# Bus data:

param SusceptanceOfReactivePower :=    1    0.000000000000000,   2    0.000000000000000,   3    0.000000000000000,   4    0.000000000000000,   5    0.000000000000000,   6   -1.000000000000000,   7    0.000000000000000,   8    0.000000000000000,   9    0.000000000000000,  10    0.000000000000000,  11    0.000000000000000,  12    0.000000000000000,  13    0.000000000000000,  14    0.000000000000000,  15    0.000000000000000,  16    0.000000000000000,  17    0.000000000000000,  18    0.000000000000000,  19    0.000000000000000,  20    0.000000000000000,  21    0.000000000000000,  22    0.000000000000000,  23    0.000000000000000,  24    0.000000000000000;
param VoltageLimitLower :=    1    0.950000000000000,   2    0.950000000000000,   3    0.950000000000000,   4    0.950000000000000,   5    0.950000000000000,   6    0.950000000000000,   7    0.950000000000000,   8    0.950000000000000,   9    0.950000000000000,  10    0.950000000000000,  11    0.950000000000000,  12    0.950000000000000,  13    0.950000000000000,  14    0.950000000000000,  15    0.950000000000000,  16    0.950000000000000,  17    0.950000000000000,  18    0.950000000000000,  19    0.950000000000000,  20    0.950000000000000,  21    0.950000000000000,  22    0.950000000000000,  23    0.950000000000000,  24    0.950000000000000;
param VoltageLimitUpper :=    1    1.050000000000000,   2    1.050000000000000,   3    1.050000000000000,   4    1.050000000000000,   5    1.050000000000000,   6    1.050000000000000,   7    1.050000000000000,   8    1.050000000000000,   9    1.050000000000000,  10    1.050000000000000,  11    1.050000000000000,  12    1.050000000000000,  13    1.050000000000000,  14    1.050000000000000,  15    1.050000000000000,  16    1.050000000000000,  17    1.050000000000000,  18    1.050000000000000,  19    1.050000000000000,  20    1.050000000000000,  21    1.050000000000000,  22    1.050000000000000,  23    1.050000000000000,  24    1.050000000000000;
param RealPowerBusDemand :=    1    1.080000000000000,   2    0.970000000000000,   3    1.800000000000000,   4    0.740000000000000,   5    0.710000000000000,   6    1.360000000000000,   7    1.250000000000000,   8    1.710000000000000,   9    1.750000000000000,  10    1.950000000000000,  11    0.000000000000000,  12    0.000000000000000,  13    2.650000000000000,  14    1.940000000000000,  15    3.170000000000000,  16    1.000000000000000,  17    0.000000000000000,  18    3.330000000000000,  19    1.810000000000000,  20    1.280000000000000,  21    0.000000000000000,  22    0.000000000000000,  23    0.000000000000000,  24    0.000000000000000;
param ReactivePowerBusDemand :=    1    0.220000000000000,   2    0.200000000000000,   3    0.370000000000000,   4    0.150000000000000,   5    0.140000000000000,   6    0.280000000000000,   7    0.250000000000000,   8    0.350000000000000,   9    0.360000000000000,  10    0.400000000000000,  11    0.000000000000000,  12    0.000000000000000,  13    0.540000000000000,  14    0.390000000000000,  15    0.640000000000000,  16    0.200000000000000,  17    0.000000000000000,  18    0.680000000000000,  19    0.370000000000000,  20    0.260000000000000,  21    0.000000000000000,  22    0.000000000000000,  23    0.000000000000000,  24    0.000000000000000;


# Line data:

param ThermalLineLimit :=    1    1.750000000000000,   2    1.750000000000000,   3    1.750000000000000,   4    1.750000000000000,   5    1.750000000000000,   6    1.750000000000000,   7    4.000000000000000,   8    1.750000000000000,   9    1.750000000000000,  10    1.750000000000000,  11    1.750000000000000,  12    1.750000000000000,  13    1.750000000000000,  14    4.000000000000000,  15    4.000000000000000,  16    4.000000000000000,  17    4.000000000000000,  18    5.000000000000000,  19    5.000000000000000,  20    5.000000000000000,  21    5.000000000000000,  22    5.000000000000000,  23    5.000000000000000,  24    5.000000000000000,  25    5.000000000000000,  26    5.000000000000000,  27    5.000000000000000,  28    5.000000000000000,  29    5.000000000000000,  30    5.000000000000000,  31    5.000000000000000,  32    5.000000000000000,  33    5.000000000000000,  34    5.000000000000000,  35    5.000000000000000,  36    5.000000000000000,  37    5.000000000000000,  38    5.000000000000000;
param LineConductance :=    1   13.001950292543883,   2    1.147381825976220,   3    2.862586649053442,   4    1.914911379886308,   5    1.263535015046744,   6    2.038433741637789,   7    0.326495847824544,   8    2.336136988283576,   9    2.741462089066255,  10    3.607147861921494,  11    3.952500391521265,  12    1.468297497016984,  13    1.468297497016984,  14    0.326495847824544,  15    0.326495847824544,  16    0.326495847824544,  17    0.326495847824544,  18    2.648753566047321,  19    3.039855888313443,  20    2.648753566047321,  21    1.307283254544918,  22    1.459477796214825,  23    3.250531461894020,  24    7.233748725873806,  25    2.581237273066222,  26    2.581237273066222,  27    2.446594851195910,  28    4.840839078773654,  29    5.528832863382541,  30    8.547008547008547,  31    1.197834315557472,  32    4.840839078773654,  33    4.840839078773654,  34    3.199156928056606,  35    3.199156928056606,  36    5.902192242833052,  37    5.902192242833052,  38    1.861946311741177;
param LineSusceptance :=    1  -69.510426563984609,   2   -4.438224205973951,   3  -11.095806047936508,   4   -7.396929019255952,   5   -4.881262029959254,   6   -7.875766729055093,   7  -11.910000709773582,   8   -9.039455436007716,   9  -10.617153616866243,  10  -15.700175945773408,  11  -15.263114719459477,  12   -5.677187746077376,  13   -5.677187746077376,  14  -11.910000709773582,  15  -11.910000709773582,  16  -11.910000709773582,  17  -11.910000709773582,  18  -20.668962253090569,  19  -23.530736320648504,  20  -20.668962253090569,  21  -10.184158257180570,  22  -11.373408051583993,  23  -25.289134773535473,  24  -56.883569526189468,  25  -20.076289901626176,  26  -20.076289901626176,  27  -18.951981011502646,  28  -37.993252163708377,  29  -42.572013048045562,  30  -68.376068376068375,  31   -9.343107661348281,  32  -37.993252163708377,  33  -37.993252163708377,  34  -24.840512617851296,  35  -24.840512617851296,  36  -45.531197301854974,  37  -45.531197301854974,  38  -14.510340222534689;
param ShuntSusceptance :=    1    0.461100000000000,   2    0.057200000000000,   3    0.022900000000000,   4    0.034300000000000,   5    0.052000000000000,   6    0.032200000000000,   7    0.000000000000000,   8    0.028100000000000,   9    0.023900000000000,  10    2.459000000000000,  11    0.016600000000000,  12    0.044700000000000,  13    0.044700000000000,  14    0.000000000000000,  15    0.000000000000000,  16    0.000000000000000,  17    0.000000000000000,  18    0.099900000000000,  19    0.087900000000000,  20    0.099900000000000,  21    0.203000000000000,  22    0.181800000000000,  23    0.081800000000000,  24    0.036400000000000,  25    0.103000000000000,  26    0.103000000000000,  27    0.109100000000000,  28    0.054500000000000,  29    0.048500000000000,  30    0.030300000000000,  31    0.221200000000000,  32    0.054500000000000,  33    0.054500000000000,  34    0.083300000000000,  35    0.083300000000000,  36    0.045500000000000,  37    0.045500000000000,  38    0.142400000000000;
param LineResistance :=    1    0.002600000000000,   2    0.054600000000000,   3    0.021800000000000,   4    0.032800000000000,   5    0.049700000000000,   6    0.030800000000000,   7    0.002300000000000,   8    0.026800000000000,   9    0.022800000000000,  10    0.013900000000000,  11    0.015900000000000,  12    0.042700000000000,  13    0.042700000000000,  14    0.002300000000000,  15    0.002300000000000,  16    0.002300000000000,  17    0.002300000000000,  18    0.006100000000000,  19    0.005400000000000,  20    0.006100000000000,  21    0.012400000000000,  22    0.011100000000000,  23    0.005000000000000,  24    0.002200000000000,  25    0.006300000000000,  26    0.006300000000000,  27    0.006700000000000,  28    0.003300000000000,  29    0.003000000000000,  30    0.001800000000000,  31    0.013500000000000,  32    0.003300000000000,  33    0.003300000000000,  34    0.005100000000000,  35    0.005100000000000,  36    0.002800000000000,  37    0.002800000000000,  38    0.008700000000000;
param FromBus :=    1            1,   2            1,   3            1,   4            2,   5            2,   6            3,   7            3,   8            4,   9            5,  10            6,  11            7,  12            8,  13            8,  14            9,  15            9,  16           10,  17           10,  18           11,  19           11,  20           12,  21           12,  22           13,  23           14,  24           15,  25           15,  26           15,  27           15,  28           16,  29           16,  30           17,  31           17,  32           18,  33           18,  34           19,  35           19,  36           20,  37           20,  38           21;
param ToBus :=    1            2,   2            3,   3            5,   4            4,   5            6,   6            9,   7           24,   8            9,   9           10,  10           10,  11            8,  12            9,  13           10,  14           11,  15           12,  16           11,  17           12,  18           13,  19           14,  20           13,  21           23,  22           23,  23           16,  24           16,  25           21,  26           21,  27           24,  28           17,  29           19,  30           18,  31           22,  32           21,  33           21,  34           20,  35           20,  36           23,  37           23,  38           22;
