Cases/Case 24/case24.col
VoltageLevel[1]
VoltageLevel[2]
VoltageLevel[3]
VoltageLevel[4]
VoltageLevel[5]
VoltageLevel[6]
VoltageLevel[7]
VoltageLevel[8]
VoltageLevel[9]
VoltageLevel[10]
VoltageLevel[11]
VoltageLevel[12]
VoltageLevel[13]
VoltageLevel[14]
VoltageLevel[15]
VoltageLevel[16]
VoltageLevel[17]
VoltageLevel[18]
VoltageLevel[19]
VoltageLevel[20]
VoltageLevel[21]
VoltageLevel[22]
VoltageLevel[23]
VoltageLevel[24]
VoltagePhase[1]
VoltagePhase[2]
VoltagePhase[3]
VoltagePhase[4]
VoltagePhase[5]
VoltagePhase[6]
VoltagePhase[7]
VoltagePhase[8]
VoltagePhase[9]
VoltagePhase[10]
VoltagePhase[11]
VoltagePhase[12]
VoltagePhase[13]
VoltagePhase[14]
VoltagePhase[15]
VoltagePhase[16]
VoltagePhase[17]
VoltagePhase[18]
VoltagePhase[19]
VoltagePhase[20]
VoltagePhase[21]
VoltagePhase[22]
VoltagePhase[23]
VoltagePhase[24]
RealPowerInjectionFromBus[1]
RealPowerInjectionFromBus[2]
RealPowerInjectionFromBus[3]
RealPowerInjectionFromBus[4]
RealPowerInjectionFromBus[5]
RealPowerInjectionFromBus[6]
RealPowerInjectionFromBus[7]
RealPowerInjectionFromBus[8]
RealPowerInjectionFromBus[9]
RealPowerInjectionFromBus[10]
RealPowerInjectionFromBus[11]
RealPowerInjectionFromBus[12]
RealPowerInjectionFromBus[13]
RealPowerInjectionFromBus[14]
RealPowerInjectionFromBus[15]
RealPowerInjectionFromBus[16]
RealPowerInjectionFromBus[17]
RealPowerInjectionFromBus[18]
RealPowerInjectionFromBus[19]
RealPowerInjectionFromBus[20]
RealPowerInjectionFromBus[21]
RealPowerInjectionFromBus[22]
RealPowerInjectionFromBus[23]
RealPowerInjectionFromBus[24]
RealPowerInjectionFromBus[25]
RealPowerInjectionFromBus[26]
RealPowerInjectionFromBus[27]
RealPowerInjectionFromBus[28]
RealPowerInjectionFromBus[29]
RealPowerInjectionFromBus[30]
RealPowerInjectionFromBus[31]
RealPowerInjectionFromBus[32]
RealPowerInjectionFromBus[33]
RealPowerInjectionFromBus[34]
RealPowerInjectionFromBus[35]
RealPowerInjectionFromBus[36]
RealPowerInjectionFromBus[37]
RealPowerInjectionFromBus[38]
RealPowerInjectionToBus[1]
RealPowerInjectionToBus[2]
RealPowerInjectionToBus[3]
RealPowerInjectionToBus[4]
RealPowerInjectionToBus[5]
RealPowerInjectionToBus[6]
RealPowerInjectionToBus[7]
RealPowerInjectionToBus[8]
RealPowerInjectionToBus[9]
RealPowerInjectionToBus[10]
RealPowerInjectionToBus[11]
RealPowerInjectionToBus[12]
RealPowerInjectionToBus[13]
RealPowerInjectionToBus[14]
RealPowerInjectionToBus[15]
RealPowerInjectionToBus[16]
RealPowerInjectionToBus[17]
RealPowerInjectionToBus[18]
RealPowerInjectionToBus[19]
RealPowerInjectionToBus[20]
RealPowerInjectionToBus[21]
RealPowerInjectionToBus[22]
RealPowerInjectionToBus[23]
RealPowerInjectionToBus[24]
RealPowerInjectionToBus[25]
RealPowerInjectionToBus[26]
RealPowerInjectionToBus[27]
RealPowerInjectionToBus[28]
RealPowerInjectionToBus[29]
RealPowerInjectionToBus[30]
RealPowerInjectionToBus[31]
RealPowerInjectionToBus[32]
RealPowerInjectionToBus[33]
RealPowerInjectionToBus[34]
RealPowerInjectionToBus[35]
RealPowerInjectionToBus[36]
RealPowerInjectionToBus[37]
RealPowerInjectionToBus[38]
ReactivePowerInjectionFromBus[1]
ReactivePowerInjectionFromBus[2]
ReactivePowerInjectionFromBus[3]
ReactivePowerInjectionFromBus[4]
ReactivePowerInjectionFromBus[5]
ReactivePowerInjectionFromBus[6]
ReactivePowerInjectionFromBus[7]
ReactivePowerInjectionFromBus[8]
ReactivePowerInjectionFromBus[9]
ReactivePowerInjectionFromBus[10]
ReactivePowerInjectionFromBus[11]
ReactivePowerInjectionFromBus[12]
ReactivePowerInjectionFromBus[13]
ReactivePowerInjectionFromBus[14]
ReactivePowerInjectionFromBus[15]
ReactivePowerInjectionFromBus[16]
ReactivePowerInjectionFromBus[17]
ReactivePowerInjectionFromBus[18]
ReactivePowerInjectionFromBus[19]
ReactivePowerInjectionFromBus[20]
ReactivePowerInjectionFromBus[21]
ReactivePowerInjectionFromBus[22]
ReactivePowerInjectionFromBus[23]
ReactivePowerInjectionFromBus[24]
ReactivePowerInjectionFromBus[25]
ReactivePowerInjectionFromBus[26]
ReactivePowerInjectionFromBus[27]
ReactivePowerInjectionFromBus[28]
ReactivePowerInjectionFromBus[29]
ReactivePowerInjectionFromBus[30]
ReactivePowerInjectionFromBus[31]
ReactivePowerInjectionFromBus[32]
ReactivePowerInjectionFromBus[33]
ReactivePowerInjectionFromBus[34]
ReactivePowerInjectionFromBus[35]
ReactivePowerInjectionFromBus[36]
ReactivePowerInjectionFromBus[37]
ReactivePowerInjectionFromBus[38]
ReactivePowerInjectionToBus[1]
ReactivePowerInjectionToBus[2]
ReactivePowerInjectionToBus[3]
ReactivePowerInjectionToBus[4]
ReactivePowerInjectionToBus[5]
ReactivePowerInjectionToBus[6]
ReactivePowerInjectionToBus[7]
ReactivePowerInjectionToBus[8]
ReactivePowerInjectionToBus[9]
ReactivePowerInjectionToBus[10]
ReactivePowerInjectionToBus[11]
ReactivePowerInjectionToBus[12]
ReactivePowerInjectionToBus[13]
ReactivePowerInjectionToBus[14]
ReactivePowerInjectionToBus[15]
ReactivePowerInjectionToBus[16]
ReactivePowerInjectionToBus[17]
ReactivePowerInjectionToBus[18]
ReactivePowerInjectionToBus[19]
ReactivePowerInjectionToBus[20]
ReactivePowerInjectionToBus[21]
ReactivePowerInjectionToBus[22]
ReactivePowerInjectionToBus[23]
ReactivePowerInjectionToBus[24]
ReactivePowerInjectionToBus[25]
ReactivePowerInjectionToBus[26]
ReactivePowerInjectionToBus[27]
ReactivePowerInjectionToBus[28]
ReactivePowerInjectionToBus[29]
ReactivePowerInjectionToBus[30]
ReactivePowerInjectionToBus[31]
ReactivePowerInjectionToBus[32]
ReactivePowerInjectionToBus[33]
ReactivePowerInjectionToBus[34]
ReactivePowerInjectionToBus[35]
ReactivePowerInjectionToBus[36]
ReactivePowerInjectionToBus[37]
ReactivePowerInjectionToBus[38]
RealPowerGeneration[3]
RealPowerGeneration[4]
RealPowerGeneration[7]
RealPowerGeneration[8]
RealPowerGeneration[9]
RealPowerGeneration[10]
RealPowerGeneration[11]
RealPowerGeneration[12]
RealPowerGeneration[13]
RealPowerGeneration[14]
RealPowerGeneration[16]
RealPowerGeneration[17]
RealPowerGeneration[18]
RealPowerGeneration[19]
RealPowerGeneration[20]
RealPowerGeneration[21]
RealPowerGeneration[22]
RealPowerGeneration[23]
RealPowerGeneration[24]
RealPowerGeneration[31]
RealPowerGeneration[32]
RealPowerGeneration[33]
RealPowerGeneration[1]
RealPowerGeneration[2]
RealPowerGeneration[5]
RealPowerGeneration[6]
RealPowerGeneration[15]
RealPowerGeneration[25]
RealPowerGeneration[26]
RealPowerGeneration[27]
RealPowerGeneration[28]
RealPowerGeneration[29]
RealPowerGeneration[30]
ReactivePowerGeneration[1]
ReactivePowerGeneration[2]
ReactivePowerGeneration[3]
ReactivePowerGeneration[4]
ReactivePowerGeneration[5]
ReactivePowerGeneration[6]
ReactivePowerGeneration[7]
ReactivePowerGeneration[8]
ReactivePowerGeneration[9]
ReactivePowerGeneration[10]
ReactivePowerGeneration[11]
ReactivePowerGeneration[12]
ReactivePowerGeneration[13]
ReactivePowerGeneration[14]
ReactivePowerGeneration[15]
ReactivePowerGeneration[16]
ReactivePowerGeneration[17]
ReactivePowerGeneration[18]
ReactivePowerGeneration[19]
ReactivePowerGeneration[20]
ReactivePowerGeneration[21]
ReactivePowerGeneration[22]
ReactivePowerGeneration[23]
ReactivePowerGeneration[24]
ReactivePowerGeneration[25]
ReactivePowerGeneration[26]
ReactivePowerGeneration[27]
ReactivePowerGeneration[28]
ReactivePowerGeneration[29]
ReactivePowerGeneration[30]
ReactivePowerGeneration[31]
ReactivePowerGeneration[32]
ReactivePowerGeneration[33]
RealPowerGenerationAtBuses[1]
RealPowerGenerationAtBuses[2]
RealPowerGenerationAtBuses[3]
RealPowerGenerationAtBuses[4]
RealPowerGenerationAtBuses[5]
RealPowerGenerationAtBuses[6]
RealPowerGenerationAtBuses[7]
RealPowerGenerationAtBuses[8]
RealPowerGenerationAtBuses[9]
RealPowerGenerationAtBuses[10]
RealPowerGenerationAtBuses[11]
RealPowerGenerationAtBuses[12]
RealPowerGenerationAtBuses[13]
RealPowerGenerationAtBuses[14]
RealPowerGenerationAtBuses[15]
RealPowerGenerationAtBuses[16]
RealPowerGenerationAtBuses[17]
RealPowerGenerationAtBuses[18]
RealPowerGenerationAtBuses[19]
RealPowerGenerationAtBuses[20]
RealPowerGenerationAtBuses[21]
RealPowerGenerationAtBuses[22]
RealPowerGenerationAtBuses[23]
RealPowerGenerationAtBuses[24]
ReactivePowerGenerationAtBuses[1]
ReactivePowerGenerationAtBuses[2]
ReactivePowerGenerationAtBuses[3]
ReactivePowerGenerationAtBuses[4]
ReactivePowerGenerationAtBuses[5]
ReactivePowerGenerationAtBuses[6]
ReactivePowerGenerationAtBuses[7]
ReactivePowerGenerationAtBuses[8]
ReactivePowerGenerationAtBuses[9]
ReactivePowerGenerationAtBuses[10]
ReactivePowerGenerationAtBuses[11]
ReactivePowerGenerationAtBuses[12]
ReactivePowerGenerationAtBuses[13]
ReactivePowerGenerationAtBuses[14]
ReactivePowerGenerationAtBuses[15]
ReactivePowerGenerationAtBuses[16]
ReactivePowerGenerationAtBuses[17]
ReactivePowerGenerationAtBuses[18]
ReactivePowerGenerationAtBuses[19]
ReactivePowerGenerationAtBuses[20]
ReactivePowerGenerationAtBuses[21]
ReactivePowerGenerationAtBuses[22]
ReactivePowerGenerationAtBuses[23]
ReactivePowerGenerationAtBuses[24]
